(set-logic LIA)
(synth-fun next ((brake Int) (distance Int) (speed Int) (throttle Int) (ignition Bool) (time Int) ) Int
	((Start Int) (Var Int) (StartBool Bool))
	((Start Int (
				 3
				 6
				 (ite StartBool Start Start)))

	(Var Int (
			 0
			 1
			 2
			 6
			 7
			 939
			 1163
			 brake
			 distance
			 speed
			 throttle
			 time
			 (+ Var Var)						
			 (- Var Var)						
			 (* Var Var)))

	(StartBool Bool (
				 	 ignition
					(= Var Var)						
					(>= Var Var)						
					(<= Var Var)						
					(and StartBool StartBool)			
					(or  StartBool StartBool)				
					(not StartBool)))))

(constraint (= (next 0 0 0 0 true 1828 ) 6))
(constraint (= (next 0 1 10 1 true 88 ) 3))
(constraint (= (next 0 3 10 1 true 1572 ) 3))

(check-synth)
